Results/Experiment 2 Results/New Benchmark/output_p1_0.00_p2_0.00_n_60_11.lp
clingo version 5.4.0
Reading from tempSRTISolver.lp ...
Solving...
Answer: 1
matched(6,2) matched(1,3) matched(8,4) matched(7,5) matched(2,6) matched(5,7) matched(4,8) matched(11,10) matched(10,11) matched(9,12) matched(12,9) matched(13,14) matched(20,15) matched(19,16) matched(18,17) matched(17,18) matched(16,19) matched(15,20) matched(14,13) matched(26,22) matched(21,23) matched(28,24) matched(27,25) matched(22,26) matched(25,27) matched(24,28) matched(23,21) matched(29,30) matched(32,31) matched(31,32) matched(30,29) matched(38,34) matched(33,35) matched(40,36) matched(39,37) matched(34,38) matched(37,39) matched(36,40) matched(35,33) matched(41,42) matched(48,43) matched(47,44) matched(46,45) matched(45,46) matched(44,47) matched(43,48) matched(42,41) matched(49,50) matched(52,51) matched(51,52) matched(50,49) matched(59,54) matched(58,55) matched(53,56) matched(60,57) matched(55,58) matched(54,59) matched(57,60) matched(56,53) matched(3,1)
Optimization: 805
Answer: 2
matched(6,2) matched(1,3) matched(8,4) matched(7,5) matched(2,6) matched(5,7) matched(4,8) matched(11,10) matched(10,11) matched(9,12) matched(12,9) matched(13,14) matched(20,15) matched(19,16) matched(18,17) matched(17,18) matched(16,19) matched(15,20) matched(14,13) matched(26,22) matched(21,23) matched(28,24) matched(27,25) matched(22,26) matched(25,27) matched(24,28) matched(23,21) matched(29,30) matched(32,31) matched(31,32) matched(30,29) matched(38,34) matched(33,35) matched(40,36) matched(39,37) matched(34,38) matched(37,39) matched(36,40) matched(35,33) matched(41,42) matched(48,43) matched(47,44) matched(46,45) matched(45,46) matched(44,47) matched(43,48) matched(42,41) matched(49,50) matched(52,51) matched(51,52) matched(50,49) matched(59,54) matched(60,55) matched(53,56) matched(58,57) matched(57,58) matched(54,59) matched(55,60) matched(56,53) matched(3,1)
Optimization: 790
Answer: 3
matched(6,2) matched(1,3) matched(8,4) matched(7,5) matched(2,6) matched(5,7) matched(4,8) matched(11,10) matched(10,11) matched(9,12) matched(12,9) matched(13,14) matched(20,15) matched(19,16) matched(18,17) matched(17,18) matched(16,19) matched(15,20) matched(14,13) matched(26,22) matched(21,23) matched(28,24) matched(27,25) matched(22,26) matched(25,27) matched(24,28) matched(23,21) matched(29,30) matched(32,31) matched(31,32) matched(30,29) matched(38,34) matched(33,35) matched(40,36) matched(39,37) matched(34,38) matched(37,39) matched(36,40) matched(35,33) matched(47,42) matched(48,43) matched(41,44) matched(46,45) matched(45,46) matched(42,47) matched(43,48) matched(44,41) matched(49,50) matched(52,51) matched(51,52) matched(50,49) matched(59,54) matched(60,55) matched(53,56) matched(58,57) matched(57,58) matched(54,59) matched(55,60) matched(56,53) matched(3,1)
Optimization: 781
Answer: 4
matched(6,2) matched(1,3) matched(8,4) matched(7,5) matched(2,6) matched(5,7) matched(4,8) matched(11,10) matched(10,11) matched(9,12) matched(12,9) matched(13,14) matched(20,15) matched(19,16) matched(18,17) matched(17,18) matched(16,19) matched(15,20) matched(14,13) matched(26,22) matched(21,23) matched(28,24) matched(27,25) matched(22,26) matched(25,27) matched(24,28) matched(23,21) matched(29,30) matched(32,31) matched(31,32) matched(30,29) matched(38,34) matched(33,35) matched(40,36) matched(39,37) matched(34,38) matched(37,39) matched(36,40) matched(35,33) matched(47,42) matched(48,43) matched(41,44) matched(46,45) matched(45,46) matched(42,47) matched(43,48) matched(44,41) matched(51,50) matched(50,51) matched(49,52) matched(52,49) matched(59,54) matched(60,55) matched(53,56) matched(58,57) matched(57,58) matched(54,59) matched(55,60) matched(56,53) matched(3,1)
Optimization: 761
Answer: 5
matched(8,2) matched(6,3) matched(1,4) matched(7,5) matched(3,6) matched(5,7) matched(2,8) matched(11,10) matched(10,11) matched(9,12) matched(12,9) matched(13,14) matched(20,15) matched(19,16) matched(18,17) matched(17,18) matched(16,19) matched(15,20) matched(14,13) matched(26,22) matched(21,23) matched(28,24) matched(27,25) matched(22,26) matched(25,27) matched(24,28) matched(23,21) matched(29,30) matched(32,31) matched(31,32) matched(30,29) matched(38,34) matched(33,35) matched(40,36) matched(39,37) matched(34,38) matched(37,39) matched(36,40) matched(35,33) matched(47,42) matched(48,43) matched(41,44) matched(46,45) matched(45,46) matched(42,47) matched(43,48) matched(44,41) matched(51,50) matched(50,51) matched(49,52) matched(52,49) matched(59,54) matched(60,55) matched(53,56) matched(58,57) matched(57,58) matched(54,59) matched(55,60) matched(56,53) matched(4,1)
Optimization: 760
Answer: 6
matched(6,2) matched(1,3) matched(8,4) matched(7,5) matched(2,6) matched(5,7) matched(4,8) matched(11,10) matched(10,11) matched(9,12) matched(12,9) matched(19,14) matched(20,15) matched(13,16) matched(18,17) matched(17,18) matched(14,19) matched(15,20) matched(16,13) matched(27,22) matched(26,23) matched(21,24) matched(28,25) matched(23,26) matched(22,27) matched(25,28) matched(24,21) matched(29,30) matched(32,31) matched(31,32) matched(30,29) matched(38,34) matched(33,35) matched(40,36) matched(39,37) matched(34,38) matched(37,39) matched(36,40) matched(35,33) matched(41,42) matched(48,43) matched(47,44) matched(46,45) matched(45,46) matched(44,47) matched(43,48) matched(42,41) matched(51,50) matched(50,51) matched(49,52) matched(52,49) matched(59,54) matched(60,55) matched(53,56) matched(58,57) matched(57,58) matched(54,59) matched(55,60) matched(56,53) matched(3,1)
Optimization: 758
Answer: 7
matched(8,2) matched(6,3) matched(1,4) matched(7,5) matched(3,6) matched(5,7) matched(2,8) matched(11,10) matched(10,11) matched(9,12) matched(12,9) matched(13,14) matched(20,15) matched(19,16) matched(18,17) matched(17,18) matched(16,19) matched(15,20) matched(14,13) matched(27,22) matched(26,23) matched(21,24) matched(28,25) matched(23,26) matched(22,27) matched(25,28) matched(24,21) matched(29,30) matched(32,31) matched(31,32) matched(30,29) matched(38,34) matched(33,35) matched(40,36) matched(39,37) matched(34,38) matched(37,39) matched(36,40) matched(35,33) matched(48,42) matched(46,43) matched(41,44) matched(47,45) matched(43,46) matched(45,47) matched(42,48) matched(44,41) matched(51,50) matched(50,51) matched(49,52) matched(52,49) matched(59,54) matched(60,55) matched(53,56) matched(58,57) matched(57,58) matched(54,59) matched(55,60) matched(56,53) matched(4,1)
Optimization: 757
Answer: 8
matched(8,2) matched(6,3) matched(1,4) matched(7,5) matched(3,6) matched(5,7) matched(2,8) matched(11,10) matched(10,11) matched(9,12) matched(12,9) matched(19,14) matched(20,15) matched(13,16) matched(18,17) matched(17,18) matched(14,19) matched(15,20) matched(16,13) matched(28,22) matched(26,23) matched(21,24) matched(27,25) matched(23,26) matched(25,27) matched(22,28) matched(24,21) matched(29,30) matched(32,31) matched(31,32) matched(30,29) matched(38,34) matched(33,35) matched(40,36) matched(39,37) matched(34,38) matched(37,39) matched(36,40) matched(35,33) matched(48,42) matched(46,43) matched(41,44) matched(47,45) matched(43,46) matched(45,47) matched(42,48) matched(44,41) matched(51,50) matched(50,51) matched(49,52) matched(52,49) matched(59,54) matched(60,55) matched(53,56) matched(58,57) matched(57,58) matched(54,59) matched(55,60) matched(56,53) matched(4,1)
Optimization: 756
Answer: 9
matched(6,2) matched(1,3) matched(8,4) matched(7,5) matched(2,6) matched(5,7) matched(4,8) matched(11,10) matched(10,11) matched(9,12) matched(12,9) matched(19,14) matched(20,15) matched(13,16) matched(18,17) matched(17,18) matched(14,19) matched(15,20) matched(16,13) matched(27,22) matched(26,23) matched(21,24) matched(28,25) matched(23,26) matched(22,27) matched(25,28) matched(24,21) matched(29,30) matched(32,31) matched(31,32) matched(30,29) matched(38,34) matched(33,35) matched(40,36) matched(39,37) matched(34,38) matched(37,39) matched(36,40) matched(35,33) matched(48,42) matched(46,43) matched(41,44) matched(47,45) matched(43,46) matched(45,47) matched(42,48) matched(44,41) matched(51,50) matched(50,51) matched(49,52) matched(52,49) matched(59,54) matched(60,55) matched(53,56) matched(58,57) matched(57,58) matched(54,59) matched(55,60) matched(56,53) matched(3,1)
Optimization: 754
Answer: 10
matched(8,2) matched(6,3) matched(1,4) matched(7,5) matched(3,6) matched(5,7) matched(2,8) matched(11,10) matched(10,11) matched(9,12) matched(12,9) matched(19,14) matched(20,15) matched(13,16) matched(18,17) matched(17,18) matched(14,19) matched(15,20) matched(16,13) matched(27,22) matched(26,23) matched(21,24) matched(28,25) matched(23,26) matched(22,27) matched(25,28) matched(24,21) matched(29,30) matched(32,31) matched(31,32) matched(30,29) matched(38,34) matched(33,35) matched(40,36) matched(39,37) matched(34,38) matched(37,39) matched(36,40) matched(35,33) matched(48,42) matched(46,43) matched(41,44) matched(47,45) matched(43,46) matched(45,47) matched(42,48) matched(44,41) matched(51,50) matched(50,51) matched(49,52) matched(52,49) matched(59,54) matched(60,55) matched(53,56) matched(58,57) matched(57,58) matched(54,59) matched(55,60) matched(56,53) matched(4,1)
Optimization: 753
Answer: 11
matched(6,2) matched(1,3) matched(8,4) matched(7,5) matched(2,6) matched(5,7) matched(4,8) matched(11,10) matched(10,11) matched(9,12) matched(12,9) matched(19,14) matched(20,15) matched(13,16) matched(18,17) matched(17,18) matched(14,19) matched(15,20) matched(16,13) matched(28,22) matched(26,23) matched(21,24) matched(27,25) matched(23,26) matched(25,27) matched(22,28) matched(24,21) matched(29,30) matched(32,31) matched(31,32) matched(30,29) matched(38,34) matched(33,35) matched(40,36) matched(39,37) matched(34,38) matched(37,39) matched(36,40) matched(35,33) matched(47,42) matched(48,43) matched(41,44) matched(46,45) matched(45,46) matched(42,47) matched(43,48) matched(44,41) matched(51,50) matched(50,51) matched(49,52) matched(52,49) matched(59,54) matched(60,55) matched(53,56) matched(58,57) matched(57,58) matched(54,59) matched(55,60) matched(56,53) matched(3,1)
Optimization: 752
Answer: 12
matched(8,2) matched(6,3) matched(1,4) matched(7,5) matched(3,6) matched(5,7) matched(2,8) matched(11,10) matched(10,11) matched(9,12) matched(12,9) matched(19,14) matched(20,15) matched(13,16) matched(18,17) matched(17,18) matched(14,19) matched(15,20) matched(16,13) matched(28,22) matched(26,23) matched(21,24) matched(27,25) matched(23,26) matched(25,27) matched(22,28) matched(24,21) matched(29,30) matched(32,31) matched(31,32) matched(30,29) matched(38,34) matched(33,35) matched(40,36) matched(39,37) matched(34,38) matched(37,39) matched(36,40) matched(35,33) matched(47,42) matched(48,43) matched(41,44) matched(46,45) matched(45,46) matched(42,47) matched(43,48) matched(44,41) matched(51,50) matched(50,51) matched(49,52) matched(52,49) matched(59,54) matched(60,55) matched(53,56) matched(58,57) matched(57,58) matched(54,59) matched(55,60) matched(56,53) matched(4,1)
Optimization: 751
Answer: 13
matched(6,2) matched(1,3) matched(8,4) matched(7,5) matched(2,6) matched(5,7) matched(4,8) matched(11,10) matched(10,11) matched(9,12) matched(12,9) matched(19,14) matched(20,15) matched(13,16) matched(18,17) matched(17,18) matched(14,19) matched(15,20) matched(16,13) matched(27,22) matched(26,23) matched(21,24) matched(28,25) matched(23,26) matched(22,27) matched(25,28) matched(24,21) matched(29,30) matched(32,31) matched(31,32) matched(30,29) matched(38,34) matched(33,35) matched(40,36) matched(39,37) matched(34,38) matched(37,39) matched(36,40) matched(35,33) matched(47,42) matched(48,43) matched(41,44) matched(46,45) matched(45,46) matched(42,47) matched(43,48) matched(44,41) matched(51,50) matched(50,51) matched(49,52) matched(52,49) matched(59,54) matched(60,55) matched(53,56) matched(58,57) matched(57,58) matched(54,59) matched(55,60) matched(56,53) matched(3,1)
Optimization: 749
Answer: 14
matched(8,2) matched(6,3) matched(1,4) matched(7,5) matched(3,6) matched(5,7) matched(2,8) matched(11,10) matched(10,11) matched(9,12) matched(12,9) matched(19,14) matched(20,15) matched(13,16) matched(18,17) matched(17,18) matched(14,19) matched(15,20) matched(16,13) matched(27,22) matched(26,23) matched(21,24) matched(28,25) matched(23,26) matched(22,27) matched(25,28) matched(24,21) matched(29,30) matched(32,31) matched(31,32) matched(30,29) matched(38,34) matched(33,35) matched(40,36) matched(39,37) matched(34,38) matched(37,39) matched(36,40) matched(35,33) matched(47,42) matched(48,43) matched(41,44) matched(46,45) matched(45,46) matched(42,47) matched(43,48) matched(44,41) matched(51,50) matched(50,51) matched(49,52) matched(52,49) matched(59,54) matched(60,55) matched(53,56) matched(58,57) matched(57,58) matched(54,59) matched(55,60) matched(56,53) matched(4,1)
Optimization: 748
OPTIMUM FOUND

Models       : 14
  Optimum    : yes
Optimization : 748
Calls        : 1
Time         : 19.136s (Solving: 8.51s 1st Model: 0.02s Unsat: 3.84s)
CPU Time     : 19.132s
